nN = 8;
nR = 24;
nH = 1;

a = [[16, 20, 15, 22, 21, 21, 19, 20, 16, 24, 23, 18, 21, 15, 19, 25, 15, 24, 15, 21, 17, 17, 25, 18], [24, 20, 22, 17, 16, 22, 25, 23, 22, 23, 22, 25, 25, 15, 15, 19, 24, 22, 16, 18, 22, 22, 23, 25], [17, 20, 18, 18, 15, 21, 24, 19, 17, 24, 16, 17, 24, 16, 19, 21, 21, 18, 16, 25, 17, 17, 18, 24], [21, 25, 17, 17, 21, 22, 17, 19, 23, 17, 19, 18, 16, 16, 18, 21, 18, 24, 19, 17, 24, 18, 23, 21], [15, 19, 24, 21, 20, 22, 16, 20, 20, 24, 21, 25, 21, 19, 22, 17, 25, 19, 17, 25, 22, 15, 19, 16], [24, 22, 25, 20, 15, 19, 15, 16, 18, 25, 22, 17, 25, 22, 18, 15, 16, 20, 21, 24, 17, 16, 17, 18], [19, 17, 22, 20, 21, 18, 19, 17, 23, 21, 18, 15, 22, 23, 22, 15, 19, 19, 23, 23, 17, 21, 18, 20], [25, 24, 22, 23, 21, 23, 25, 22, 25, 16, 24, 22, 23, 17, 22, 18, 19, 15, 17, 25, 21, 23, 25, 24]];
c = [[[0, 0, 0, 0, 0, 0, 0, 0, 0, 0, 0, 0, 0, 0, 0, 0, 0, 0, 0, 0, 0, 0, 0, 0], [45, 43, 32, 42, 49, 33, 33, 49, 40, 33, 35, 36, 33, 41, 35, 49, 34, 41, 30, 50, 32, 39, 35, 30], [32, 36, 48, 43, 42, 40, 42, 42, 39, 40, 40, 37, 46, 37, 47, 39, 42, 32, 32, 47, 50, 48, 44, 49], [50, 46, 39, 45, 45, 34, 30, 30, 49, 30, 48, 41, 50, 47, 33, 34, 32, 41, 44, 43, 40, 47, 30, 47], [45, 43, 43, 44, 42, 32, 43, 42, 46, 40, 37, 37, 32, 38, 32, 40, 48, 34, 35, 40, 30, 31, 31, 38], [41, 44, 33, 36, 49, 38, 44, 50, 39, 47, 49, 38, 44, 44, 35, 31, 32, 38, 31, 40, 31, 37, 42, 50], [31, 38, 30, 45, 30, 32, 44, 47, 35, 43, 47, 50, 32, 48, 41, 50, 35, 50, 38, 39, 44, 50, 36, 35], [36, 48, 47, 47, 38, 37, 33, 30, 45, 42, 46, 42, 42, 42, 33, 49, 43, 35, 32, 47, 40, 39, 36, 48]], [[0, 0, 0, 0, 0, 0, 0, 0, 0, 0, 0, 0, 0, 0, 0, 0, 0, 0, 0, 0, 0, 0, 0, 0], [0, 0, 0, 0, 0, 0, 0, 0, 0, 0, 0, 0, 0, 0, 0, 0, 0, 0, 0, 0, 0, 0, 0, 0], [46, 47, 36, 49, 43, 31, 38, 37, 50, 32, 47, 32, 50, 38, 45, 50, 45, 38, 41, 37, 50, 47, 42, 47], [50, 46, 38, 48, 34, 30, 33, 44, 36, 42, 40, 30, 48, 47, 32, 46, 39, 42, 48, 33, 35, 43, 35, 48], [36, 39, 35, 47, 31, 40, 44, 46, 38, 50, 50, 32, 33, 30, 38, 34, 47, 38, 44, 32, 48, 30, 49, 35], [42, 37, 45, 45, 42, 31, 36, 35, 47, 41, 44, 33, 38, 36, 31, 35, 40, 39, 34, 39, 50, 41, 30, 32], [48, 45, 50, 47, 40, 47, 38, 45, 31, 41, 38, 40, 39, 46, 38, 32, 38, 30, 34, 32, 46, 33, 37, 34], [31, 49, 41, 41, 44, 33, 48, 39, 32, 38, 34, 33, 50, 32, 35, 47, 49, 43, 40, 49, 39, 36, 42, 41]], [[0, 0, 0, 0, 0, 0, 0, 0, 0, 0, 0, 0, 0, 0, 0, 0, 0, 0, 0, 0, 0, 0, 0, 0], [0, 0, 0, 0, 0, 0, 0, 0, 0, 0, 0, 0, 0, 0, 0, 0, 0, 0, 0, 0, 0, 0, 0, 0], [0, 0, 0, 0, 0, 0, 0, 0, 0, 0, 0, 0, 0, 0, 0, 0, 0, 0, 0, 0, 0, 0, 0, 0], [47, 36, 41, 31, 41, 36, 46, 39, 48, 48, 44, 30, 38, 40, 32, 37, 49, 42, 37, 45, 48, 34, 39, 34], [31, 43, 37, 46, 42, 36, 40, 44, 45, 39, 48, 38, 34, 41, 42, 41, 33, 31, 46, 34, 49, 34, 33, 32], [48, 42, 30, 48, 33, 30, 36, 47, 32, 49, 48, 44, 31, 34, 38, 32, 39, 30, 35, 39, 35, 32, 45, 42], [45, 42, 31, 38, 36, 45, 49, 30, 48, 49, 38, 33, 35, 43, 38, 43, 47, 49, 46, 33, 45, 38, 41, 32], [49, 37, 33, 30, 46, 36, 46, 42, 35, 32, 35, 50, 35, 30, 49, 45, 48, 32, 34, 50, 45, 43, 40, 43]], [[0, 0, 0, 0, 0, 0, 0, 0, 0, 0, 0, 0, 0, 0, 0, 0, 0, 0, 0, 0, 0, 0, 0, 0], [0, 0, 0, 0, 0, 0, 0, 0, 0, 0, 0, 0, 0, 0, 0, 0, 0, 0, 0, 0, 0, 0, 0, 0], [0, 0, 0, 0, 0, 0, 0, 0, 0, 0, 0, 0, 0, 0, 0, 0, 0, 0, 0, 0, 0, 0, 0, 0], [0, 0, 0, 0, 0, 0, 0, 0, 0, 0, 0, 0, 0, 0, 0, 0, 0, 0, 0, 0, 0, 0, 0, 0], [30, 50, 45, 48, 31, 31, 43, 39, 45, 30, 34, 49, 40, 49, 40, 32, 34, 38, 38, 31, 43, 49, 38, 33], [48, 37, 40, 44, 42, 49, 37, 47, 48, 44, 31, 30, 36, 32, 47, 39, 34, 35, 45, 32, 30, 46, 31, 38], [33, 33, 35, 33, 40, 34, 49, 44, 48, 39, 39, 46, 38, 37, 42, 40, 48, 35, 43, 39, 48, 35, 44, 34], [36, 44, 30, 47, 40, 43, 46, 49, 49, 45, 44, 43, 36, 36, 35, 45, 36, 41, 35, 44, 38, 43, 42, 47]], [[0, 0, 0, 0, 0, 0, 0, 0, 0, 0, 0, 0, 0, 0, 0, 0, 0, 0, 0, 0, 0, 0, 0, 0], [0, 0, 0, 0, 0, 0, 0, 0, 0, 0, 0, 0, 0, 0, 0, 0, 0, 0, 0, 0, 0, 0, 0, 0], [0, 0, 0, 0, 0, 0, 0, 0, 0, 0, 0, 0, 0, 0, 0, 0, 0, 0, 0, 0, 0, 0, 0, 0], [0, 0, 0, 0, 0, 0, 0, 0, 0, 0, 0, 0, 0, 0, 0, 0, 0, 0, 0, 0, 0, 0, 0, 0], [0, 0, 0, 0, 0, 0, 0, 0, 0, 0, 0, 0, 0, 0, 0, 0, 0, 0, 0, 0, 0, 0, 0, 0], [40, 45, 35, 46, 41, 46, 37, 41, 50, 45, 49, 39, 32, 47, 50, 50, 40, 45, 47, 46, 49, 49, 34, 34], [33, 44, 47, 47, 38, 44, 46, 36, 49, 49, 49, 50, 48, 42, 42, 34, 32, 36, 35, 40, 30, 38, 45, 50], [35, 35, 39, 47, 34, 31, 49, 40, 46, 43, 30, 34, 45, 45, 34, 39, 50, 40, 43, 49, 38, 36, 39, 48]], [[0, 0, 0, 0, 0, 0, 0, 0, 0, 0, 0, 0, 0, 0, 0, 0, 0, 0, 0, 0, 0, 0, 0, 0], [0, 0, 0, 0, 0, 0, 0, 0, 0, 0, 0, 0, 0, 0, 0, 0, 0, 0, 0, 0, 0, 0, 0, 0], [0, 0, 0, 0, 0, 0, 0, 0, 0, 0, 0, 0, 0, 0, 0, 0, 0, 0, 0, 0, 0, 0, 0, 0], [0, 0, 0, 0, 0, 0, 0, 0, 0, 0, 0, 0, 0, 0, 0, 0, 0, 0, 0, 0, 0, 0, 0, 0], [0, 0, 0, 0, 0, 0, 0, 0, 0, 0, 0, 0, 0, 0, 0, 0, 0, 0, 0, 0, 0, 0, 0, 0], [0, 0, 0, 0, 0, 0, 0, 0, 0, 0, 0, 0, 0, 0, 0, 0, 0, 0, 0, 0, 0, 0, 0, 0], [48, 45, 30, 48, 34, 46, 30, 50, 44, 30, 50, 37, 42, 50, 45, 40, 36, 50, 46, 45, 40, 50, 48, 32], [31, 48, 41, 41, 38, 47, 39, 42, 50, 48, 38, 36, 38, 33, 44, 30, 43, 38, 35, 45, 42, 48, 34, 37]], [[0, 0, 0, 0, 0, 0, 0, 0, 0, 0, 0, 0, 0, 0, 0, 0, 0, 0, 0, 0, 0, 0, 0, 0], [0, 0, 0, 0, 0, 0, 0, 0, 0, 0, 0, 0, 0, 0, 0, 0, 0, 0, 0, 0, 0, 0, 0, 0], [0, 0, 0, 0, 0, 0, 0, 0, 0, 0, 0, 0, 0, 0, 0, 0, 0, 0, 0, 0, 0, 0, 0, 0], [0, 0, 0, 0, 0, 0, 0, 0, 0, 0, 0, 0, 0, 0, 0, 0, 0, 0, 0, 0, 0, 0, 0, 0], [0, 0, 0, 0, 0, 0, 0, 0, 0, 0, 0, 0, 0, 0, 0, 0, 0, 0, 0, 0, 0, 0, 0, 0], [0, 0, 0, 0, 0, 0, 0, 0, 0, 0, 0, 0, 0, 0, 0, 0, 0, 0, 0, 0, 0, 0, 0, 0], [0, 0, 0, 0, 0, 0, 0, 0, 0, 0, 0, 0, 0, 0, 0, 0, 0, 0, 0, 0, 0, 0, 0, 0], [49, 30, 41, 38, 38, 36, 31, 36, 49, 35, 45, 32, 36, 42, 38, 35, 31, 49, 35, 41, 47, 44, 44, 44]], [[0, 0, 0, 0, 0, 0, 0, 0, 0, 0, 0, 0, 0, 0, 0, 0, 0, 0, 0, 0, 0, 0, 0, 0], [0, 0, 0, 0, 0, 0, 0, 0, 0, 0, 0, 0, 0, 0, 0, 0, 0, 0, 0, 0, 0, 0, 0, 0], [0, 0, 0, 0, 0, 0, 0, 0, 0, 0, 0, 0, 0, 0, 0, 0, 0, 0, 0, 0, 0, 0, 0, 0], [0, 0, 0, 0, 0, 0, 0, 0, 0, 0, 0, 0, 0, 0, 0, 0, 0, 0, 0, 0, 0, 0, 0, 0], [0, 0, 0, 0, 0, 0, 0, 0, 0, 0, 0, 0, 0, 0, 0, 0, 0, 0, 0, 0, 0, 0, 0, 0], [0, 0, 0, 0, 0, 0, 0, 0, 0, 0, 0, 0, 0, 0, 0, 0, 0, 0, 0, 0, 0, 0, 0, 0], [0, 0, 0, 0, 0, 0, 0, 0, 0, 0, 0, 0, 0, 0, 0, 0, 0, 0, 0, 0, 0, 0, 0, 0], [0, 0, 0, 0, 0, 0, 0, 0, 0, 0, 0, 0, 0, 0, 0, 0, 0, 0, 0, 0, 0, 0, 0, 0]]];

q = [[[13], [5], [6], [23], [10], [17], [12], [11], [13], [19], [10], [18], [13], [24], [18], [17], [17], [8], [13], [20], [17], [20], [13], [22]], [[16], [23], [19], [17], [24], [17], [21], [16], [5], [14], [16], [22], [24], [25], [8], [13], [14], [10], [8], [11], [8], [12], [11], [10]], [[8], [5], [5], [17], [21], [16], [16], [13], [23], [20], [13], [13], [18], [25], [12], [19], [12], [19], [11], [24], [21], [5], [15], [23]], [[19], [19], [25], [8], [5], [20], [6], [17], [24], [20], [12], [18], [5], [14], [24], [16], [24], [6], [9], [13], [22], [5], [6], [25]], [[12], [10], [22], [18], [24], [8], [9], [5], [14], [22], [14], [15], [25], [14], [11], [6], [21], [16], [6], [17], [13], [21], [19], [5]], [[10], [15], [14], [8], [11], [24], [11], [10], [5], [19], [8], [24], [5], [16], [7], [6], [6], [21], [13], [17], [13], [15], [16], [14]], [[19], [17], [23], [23], [16], [7], [20], [21], [12], [13], [25], [19], [10], [8], [22], [25], [13], [10], [15], [21], [10], [24], [11], [17]], [[22], [19], [15], [8], [9], [16], [21], [21], [9], [10], [8], [11], [18], [7], [16], [7], [13], [5], [6], [15], [7], [18], [23], [24]]];
Q = [[35], [36], [37], [36], [34], [30], [40], [32]];
